Solver command line: []

Read LP format model from file C:\Users\wlhlm\AppData\Local\Temp\tmppiasxc9v.pyomo.lp
Reading time = 3.05 seconds
objective: 996960 rows, 878399 columns, 2253054 nonzeros
Set parameter MIPGap to value 0.03
Gurobi Optimizer version 12.0.1 build v12.0.1rc0 (win64 - Windows 11.0 (26100.2))

CPU model: Intel(R) Core(TM) Ultra 7 258V, instruction set [SSE2|AVX|AVX2]
Thread count: 8 physical cores, 8 logical processors, using up to 8 threads

Non-default parameters:
MIPGap  0.03

Optimize a model with 996960 rows, 878399 columns and 2253054 nonzeros
Model fingerprint: 0x8f89b34c
Model has 8783 quadratic constraints
Variable types: 755424 continuous, 122975 integer (105408 binary)
Coefficient statistics:
  Matrix range     [7e-03, 2e+02]
  QMatrix range    [1e+00, 1e+00]
  Objective range  [1e-02, 4e+02]
  Bounds range     [1e+00, 3e+00]
  RHS range        [8e-05, 1e+04]
Presolve removed 788421 rows and 654276 columns
Presolve time: 0.68s
Presolved: 208539 rows, 224123 columns, 650196 nonzeros
Variable types: 143228 continuous, 80895 integer (72111 binary)
Performing another presolve...
Presolve removed 70391 rows and 70392 columns (presolve time = 9s)...
Presolve removed 70391 rows and 70392 columns
Presolve time: 8.97s
Deterministic concurrent LP optimizer: primal and dual simplex
Showing primal log only...


Root simplex log...

Iteration    Objective       Primal Inf.    Dual Inf.      Time
       0    3.9939376e+07   3.225949e+07   4.945137e+13     11s
Concurrent spin time: 0.00s

Solved with dual simplex

Root simplex log...

Iteration    Objective       Primal Inf.    Dual Inf.      Time
   64542    3.3372393e+07   0.000000e+00   0.000000e+00     15s

Root relaxation: objective 3.337239e+07, 64542 iterations, 4.38 seconds (5.58 work units)
Total elapsed time = 15.02s (DegenMoves)

    Nodes    |    Current Node    |     Objective Bounds      |     Work
 Expl Unexpl |  Obj  Depth IntInf | Incumbent    BestBd   Gap | It/Node Time

     0     0 3.3372e+07    0  420          - 3.3372e+07      -     -   18s
H    0     0                    3.350390e+07 3.3372e+07  0.39%     -   19s

Explored 1 nodes (73840 simplex iterations) in 19.34 seconds (22.07 work units)
Thread count was 8 (of 8 available processors)

Solution count 1: 3.35039e+07 

Optimal solution found (tolerance 3.00e-02)
Best objective 3.350390010903e+07, best bound 3.337239321722e+07, gap 0.3925%

